(set-logic HORN)
(declare-fun inv ((_ BitVec 32) (_ BitVec 32) (_ BitVec 32) (_ BitVec 32) (_ BitVec 32) (_ BitVec 32) ) Bool)
(assert (forall ((MAXPATHLEN (_ BitVec 32)) (pathbuf_off (_ BitVec 32)) (bound_off (_ BitVec 32)) (glob2_p_off (_ BitVec 32)) (glob2_pathbuf_off (_ BitVec 32)) (glob2_pathlim_off (_ BitVec 32))) 
       (=> ( and ( bvugt MAXPATHLEN (_ bv0 32) ) ( bvult MAXPATHLEN (_ bv2147483647 32) ) ( = pathbuf_off (_ bv0 32) ) ( = bound_off ( bvsub ( bvadd pathbuf_off MAXPATHLEN (_ bv1 32) ) (_ bv1 32) ) ) ( = glob2_pathbuf_off pathbuf_off ) ( = glob2_pathlim_off bound_off ) ( = glob2_p_off glob2_pathbuf_off ) ) (inv MAXPATHLEN pathbuf_off bound_off glob2_p_off glob2_pathbuf_off glob2_pathlim_off))))
(assert (forall ((MAXPATHLEN (_ BitVec 32)) (pathbuf_off (_ BitVec 32)) (bound_off (_ BitVec 32)) (glob2_p_off (_ BitVec 32)) (glob2_pathbuf_off (_ BitVec 32)) (glob2_pathlim_off (_ BitVec 32)) (MAXPATHLEN! (_ BitVec 32)) (pathbuf_off! (_ BitVec 32)) (bound_off! (_ BitVec 32)) (glob2_p_off! (_ BitVec 32)) (glob2_pathbuf_off! (_ BitVec 32)) (glob2_pathlim_off! (_ BitVec 32))) 
       (=> (and (inv MAXPATHLEN pathbuf_off bound_off glob2_p_off glob2_pathbuf_off glob2_pathlim_off) ( and ( bvule glob2_p_off glob2_pathlim_off ) ( = glob2_p_off ( bvadd glob2_p_off (_ bv1 32) ) ) ( = MAXPATHLEN! MAXPATHLEN ) ( = pathbuf_off! pathbuf_off ) ( = bound_off! bound_off ) ( = glob2_pathbuf_off! glob2_pathbuf_off ) ( = glob2_pathlim_off! glob2_pathlim_off ) )) (inv MAXPATHLEN! pathbuf_off! bound_off! glob2_p_off! glob2_pathbuf_off! glob2_pathlim_off!))))
(assert (forall ((MAXPATHLEN (_ BitVec 32)) (pathbuf_off (_ BitVec 32)) (bound_off (_ BitVec 32)) (glob2_p_off (_ BitVec 32)) (glob2_pathbuf_off (_ BitVec 32)) (glob2_pathlim_off (_ BitVec 32))) 
       (=> (inv MAXPATHLEN pathbuf_off bound_off glob2_p_off glob2_pathbuf_off glob2_pathlim_off) ( or ( not ( bvule glob2_p_off glob2_pathlim_off ) ) ( and ( bvule glob2_p_off (_ bv0 32) ) ( bvult glob2_p_off ( bvadd MAXPATHLEN (_ bv1 32) ) ) ) ))))
(check-sat)
